StringID   Type       x          y          demand     ReadyTime  DueDate    ServiceTime
D0         d              24.608    60.095      0.000      0.000     23.983      0.000
S0         f              24.608    60.095      0.000      0.000     23.983      0.000
S1         f              64.870    39.720      0.000      0.000     23.983      0.000
S2         f              96.280     0.880      0.000      0.000     23.983      0.000
C0         c              45.728    55.570      0.006      8.862      9.389      0.053
C1         c              58.404    25.766      0.008     13.698     14.139      0.054
C2         c              26.888    10.463      0.082     18.423     19.022      0.091
C3         c              28.852    36.428      0.048     14.362     15.013      0.074
C4         c              55.165    71.176      0.007     13.168     13.794      0.054

Q Vehicle fuel tank capacity /129.2600/
C Vehicle load capacity /0.9800/
r fuel consumption rate /0.4487/
g inverse refueling rate /0.0080/
v average Velocity /36.7700/
gv charging speed /125.7100/

--------------------
instance_id /509/
number of clusters /6/
working_startTime (hour) /8.00/
working_endTime (hour) /21.70/
instance_endTime (hour) /23.98/
service_time_type /cargoweight/
demand_type /20_80/
instance_type /R/
instance x range /[0.0, 100.0]/
instance y range /[0.0, 100.0]/
cs_time_to_depot (hour)/[1.2271942434283283,2.5284010262664665]/
